p cnf 891 1201
c ind 622 623 624 637 644 670 731 732 745 752 0
c ind 756 758 761 777 779 782 794 795 814 816 0
c ind 820 831 832 836 837 838 842 844 876 858 0
c ind 867 881 862 872 889 615 730 875 645 857 0
c ind 866 880 861 871 657 888 616 617 729 620 0
c ind 621 728 826 827 825 824 823 845 874 856 0
c ind 865 879 860 870 887 835 873 855 864 878 0
c ind 859 869 886 833 834 850 854 884 822 821 0
c ind 843 830 819 841 839 840 828 829 818 817 0
c ind 810 852 882 851 853 883 863 877 868 885 0
c ind 618 619 847 815 813 811 812 809 802 801 0
c ind 808 848 807 806 805 804 803 800 799 849 0
c ind 798 797 796 614 789 788 786 787 785 784 0
c ind 846 790 791 783 781 792 780 793 778 776 0
c ind 774 775 773 772 771 770 769 768 767 765 0
c ind 766 764 763 762 760 759 757 755 753 754 0
c ind 735 751 746 750 747 748 742 749 744 740 0
c ind 741 743 739 734 738 736 737 733 727 720 0
c ind 712 726 725 724 723 706 705 704 722 703 0
c ind 721 702 701 700 719 718 717 716 715 627 0
c ind 714 713 711 710 709 708 707 699 692 684 0
c ind 698 697 696 695 678 677 676 694 675 693 0
c ind 674 673 672 691 690 689 688 687 686 685 0
c ind 683 682 681 680 679 671 669 667 668 658 0
c ind 659 666 665 664 663 662 660 661 654 653 0
c ind 655 656 652 651 650 649 647 648 646 643 0
c ind 642 638 639 640 641 634 636 633 632 635 0
c ind 626 631 625 630 628 629 1 0
c ret 574 575 576 577 578 579 580 581 582 583 0
c ret 584 280 585 586 587 286 287 288 289 588 0
c ret 290 589 291 292 293 590 294 591 295 296 0
c ret 297 298 592 299 300 301 302 303 304 593 0
c ret 305 594 306 595 596 307 308 309 310 311 0
c ret 312 313 314 597 315 598 316 317 599 600 0
c ret 318 319 320 321 322 601 281 323 324 325 0
c ret 326 602 327 603 328 329 604 605 330 331 0
c ret 332 606 607 333 334 335 608 336 337 338 0
c ret 339 340 341 342 609 343 344 345 346 347 0
c ret 348 610 349 611 350 351 612 352 613 353 0
c ret 354 355 356 357 358 359 360 361 362 363 0
c ret 282 364 365 366 367 368 369 370 371 372 0
c ret 373 374 375 376 377 378 379 380 381 382 0
c ret 383 384 385 386 387 388 389 390 391 392 0
c ret 393 394 395 396 397 398 399 400 401 402 0
c ret 403 283 404 405 406 407 408 409 410 411 0
c ret 412 413 414 415 416 417 418 419 420 421 0
c ret 422 423 424 425 426 427 428 429 430 431 0
c ret 432 433 434 435 436 437 438 439 440 441 0
c ret 442 443 444 445 446 447 448 449 450 451 0
c ret 452 453 454 455 456 457 458 459 460 461 0
c ret 462 463 464 465 466 467 468 469 470 471 0
c ret 472 473 474 284 475 476 477 478 479 480 0
c ret 481 482 483 484 485 486 487 488 489 490 0
c ret 491 492 493 494 495 496 497 498 499 500 0
c ret 501 502 503 504 505 506 507 508 509 510 0
c ret 511 512 513 285 514 515 516 517 518 519 0
c ret 520 521 522 523 524 525 526 527 528 529 0
c ret 530 531 532 533 534 535 536 537 538 539 0
c ret 540 541 542 543 544 545 546 547 548 549 0
c ret 550 551 552 553 554 555 556 557 558 559 0
c ret 560 561 562 563 564 565 566 567 568 569 0
c ret 570 571 572 573 0
2 4 5 -276 0
2 3 5 -276 0
-2 276 0
-2 -5 0
-2 -3 -4 0
3 512 0
3 -513 519 0
3 513 520 0
-3 -512 513 -520 0
-3 -512 -513 -519 0
4 512 0
4 -513 -519 0
4 513 -520 0
-4 -512 513 520 0
-4 -512 -513 519 0
5 6 -53 -96 -161 0
5 -6 53 -96 -161 0
-5 161 0
-5 6 53 0
-5 96 0
-5 -6 -53 0
6 -7 -8 0
6 -7 -51 0
6 -7 -49 0
-6 7 0
-6 8 49 51 0
4 7 -541 0
3 7 -541 0
-7 541 0
-3 -4 -7 0
8 36 -37 0
8 -9 12 -37 0
-8 37 0
-8 -12 -36 0
-8 9 -36 0
9 10 11 0
-9 -10 0
-9 -11 0
10 434 435 436 0
-10 -434 0
-10 -436 0
-10 -435 0
11 442 -444 0
-11 -442 0
-11 444 0
12 -13 593 0
12 13 14 0
-12 -13 -593 0
-12 13 -14 0
13 421 -423 0
-13 -421 0
-13 423 0
14 -15 -592 0
-14 592 0
-14 15 0
15 16 -20 0
-15 -16 0
-15 20 0
16 -17 -312 0
16 -19 -312 0
16 -18 -312 0
-16 312 0
-16 17 18 19 0
17 -313 314 315 0
-17 313 0
-17 -315 0
-17 -314 0
18 318 321 322 0
-18 -318 0
-18 -322 0
-18 -321 0
19 -318 319 320 0
-19 318 0
-19 -320 0
-19 -319 0
20 21 -28 0
20 21 31 -345 0
-20 -21 0
-20 28 -31 0
-20 28 345 0
21 -22 25 0
21 25 366 0
-21 -25 0
-21 22 -366 0
22 -24 369 372 0
22 -23 -24 369 0
-22 -369 0
-22 24 0
-22 23 -372 0
23 370 -371 0
-23 -370 0
-23 371 0
24 367 368 0
-24 -367 0
-24 -368 0
23 -24 25 26 -27 0
24 -25 0
-25 -26 0
-23 -25 0
-25 27 0
26 378 379 0
26 378 386 387 0
-26 -378 0
-26 -379 -386 0
-26 -379 -387 0
27 -366 369 372 -373 0
-27 373 0
-27 -372 0
-27 366 0
-27 -369 0
28 29 -338 0
28 30 -338 -344 0
-28 338 0
-28 -29 344 0
-28 -29 -30 0
29 339 340 341 0
-29 -339 0
-29 -341 0
-29 -340 0
30 342 -343 0
-30 -342 0
-30 343 0
31 32 34 0
-31 -32 0
-31 -34 0
32 -33 344 -350 0
-32 33 0
-32 350 0
-32 -344 0
-29 30 33 -338 -345 0
29 -33 0
-30 -33 0
-33 338 0
-33 345 0
-33 34 -35 -358 0
-33 34 -35 -359 0
-34 35 0
33 -34 0
-34 358 359 0
35 344 350 -351 0
-35 351 0
-35 -350 0
-35 -344 0
11 36 -280 0
36 -280 594 0
-36 280 0
-11 -36 -594 0
37 -38 48 0
-37 38 0
-37 -48 0
38 39 476 0
38 39 42 43 0
-38 -39 0
-38 -43 -476 0
-38 -42 -476 0
39 -40 -41 -465 0
39 -40 -41 -466 0
-39 41 0
-39 40 0
-39 465 466 0
40 468 469 470 471 0
-40 -471 0
-40 -470 0
-40 -468 0
-40 -469 0
41 -462 -463 -464 467 0
-41 464 0
-41 -467 0
-41 462 0
-41 463 0
42 479 -481 0
-42 -479 0
-42 481 0
43 -44 46 -483 0
43 -45 46 483 0
-43 -46 0
-43 44 -483 0
-43 45 483 0
44 -484 485 0
-44 484 0
-44 -485 0
45 507 -509 0
-45 -507 0
-45 509 0
-44 46 47 -476 -483 0
44 -46 0
-46 -47 0
-46 476 0
-46 483 0
47 487 -488 -489 490 0
-47 -487 0
-47 -490 0
-47 489 0
-47 488 0
-12 48 280 -455 0
14 48 280 455 0
-48 -280 0
12 -48 -455 0
-14 -48 455 0
-45 49 -50 -596 0
-49 596 0
45 -49 0
-49 50 0
50 -476 483 0
-50 476 0
-50 -483 0
-42 51 -52 -595 0
-51 595 0
42 -51 0
-51 52 0
43 52 -476 0
-52 476 0
-43 -52 0
53 -54 -91 0
53 -91 810 0
-53 91 0
-53 54 -810 0
54 55 57 0
54 58 872 0
54 55 58 0
54 57 872 0
-54 -55 -872 0
-54 -57 -58 0
55 -56 817 0
-55 -817 0
-55 56 0
56 841 -843 0
-56 -841 0
-56 843 0
57 -817 -819 0
56 57 817 0
57 -817 818 0
-56 -57 817 0
-57 -817 -818 819 0
58 -59 -871 0
58 59 60 -63 0
-58 59 63 0
-58 -59 871 0
-58 59 -60 0
59 813 -815 0
-59 -813 0
-59 815 0
60 -61 -62 -799 0
60 -61 -62 -800 0
-60 62 0
-60 61 0
-60 799 800 0
61 802 803 804 805 0
-61 -805 0
-61 -804 0
-61 -802 0
-61 -803 0
62 -796 -797 -798 801 0
-62 798 0
-62 -801 0
-62 796 0
-62 797 0
63 89 90 0
63 -64 67 90 0
-63 -90 0
-63 -67 -89 0
-63 64 -89 0
64 65 66 0
-64 -65 0
-64 -66 0
65 776 -778 0
-65 -776 0
-65 778 0
66 768 769 770 0
-66 -768 0
-66 -770 0
-66 -769 0
67 -68 869 0
67 68 69 0
-67 -68 -869 0
-67 68 -69 0
68 755 -757 0
-68 -755 0
-68 757 0
69 -70 -868 0
-69 868 0
-69 70 0
70 -71 85 0
-70 71 0
-70 -85 0
71 -78 79 0
71 72 79 -679 0
-71 -79 0
-71 -72 78 0
-71 78 679 0
72 73 0
72 76 -678 0
72 76 684 0
-72 -73 -76 0
-72 -73 678 -684 0
73 -74 75 -672 -679 0
-73 74 0
-73 -75 0
-73 672 0
-73 679 0
74 673 674 675 0
-74 -673 0
-74 -675 0
-74 -674 0
75 676 -677 0
-75 -676 0
-75 677 0
76 77 678 684 -685 0
-76 -678 0
-76 -77 0
-76 685 0
-76 -684 0
77 692 693 0
-77 -692 0
-77 -693 0
74 78 -672 0
75 78 -672 -678 0
-78 672 0
-74 -78 678 0
-74 -75 -78 0
79 81 84 0
79 81 -83 0
79 80 81 0
-79 -81 0
-79 -80 83 -84 0
80 701 702 703 0
-80 -701 0
-80 -703 0
-80 -702 0
80 81 -700 0
81 82 -700 -706 0
-81 700 0
-80 -81 706 0
-80 -81 -82 0
82 704 -705 0
-82 -704 0
-82 705 0
83 712 713 0
83 712 720 721 0
-83 -712 0
-83 -713 -720 0
-83 -713 -721 0
82 84 -700 706 -707 0
-84 707 0
-82 -84 0
-84 700 0
-84 -706 0
85 -86 -646 0
85 -88 -646 0
85 -87 -646 0
-85 646 0
-85 86 87 88 0
86 -647 648 649 0
-86 647 0
-86 -649 0
-86 -648 0
87 652 655 656 0
-87 -652 0
-87 -656 0
-87 -655 0
88 -652 653 654 0
-88 652 0
-88 -654 0
-88 -653 0
65 89 -614 0
89 -614 870 0
-89 614 0
-65 -89 -870 0
-67 90 614 -789 0
69 90 614 789 0
-90 -614 0
67 -90 -789 0
-69 -90 789 0
58 91 92 0
63 91 93 0
91 92 93 0
58 63 91 0
-63 -91 -92 0
-58 -91 -93 0
60 92 810 0
-92 -810 0
-60 -92 0
93 94 -95 0
-93 -94 0
-93 95 0
94 821 -822 -823 824 0
-94 -821 0
-94 -824 0
-94 823 0
-94 822 0
95 -810 -817 -818 819 0
-95 818 0
-95 -819 0
-95 810 0
-95 817 0
96 97 -107 -118 0
96 -97 107 -118 0
-96 118 0
-96 97 107 0
-96 -97 -107 0
97 98 106 810 0
97 -104 106 -810 0
-97 -106 0
-97 -98 810 0
-97 104 -810 0
60 98 99 103 0
60 98 99 -102 0
-60 -98 0
-98 -99 0
-98 102 -103 0
99 -101 614 -789 0
99 100 614 789 0
-99 -614 0
-99 101 -789 0
-99 -100 789 0
-70 100 -618 0
-100 618 0
70 -100 0
-68 101 873 0
68 100 101 0
-68 -101 -873 0
68 -100 -101 0
-64 101 102 0
64 -102 0
-101 -102 0
65 103 -614 0
103 -614 874 0
-103 614 0
-65 -103 -874 0
55 57 104 0
104 105 876 0
55 104 105 0
57 104 876 0
-55 -104 -876 0
-57 -104 -105 0
-59 105 -875 0
59 -98 105 0
-59 -105 875 0
59 98 -105 0
-93 -105 106 0
93 -106 0
105 -106 0
107 -108 -116 0
107 111 -114 -116 0
-107 116 0
-107 108 -111 0
-107 108 114 0
-42 108 110 0
108 -109 110 0
-108 -110 0
42 -108 109 0
-45 109 483 -600 0
45 -109 0
-109 600 0
-109 -483 0
42 110 476 0
110 476 599 0
46 110 476 0
-110 -476 0
-42 -46 -110 -599 0
111 -113 280 -455 0
111 112 280 455 0
-111 -280 0
-111 113 -455 0
-111 -112 455 0
-15 112 -284 0
-112 284 0
15 -112 0
-13 113 597 0
13 112 113 0
-13 -113 -597 0
13 -112 -113 0
39 114 115 0
-9 39 113 114 0
-39 -114 0
9 -114 -115 0
-113 -114 -115 0
11 115 -280 0
115 -280 598 0
-115 280 0
-11 -115 -598 0
-7 116 476 0
-7 -109 116 0
-7 116 -117 0
7 -116 0
109 -116 117 -476 0
43 117 -599 0
42 43 117 0
-43 -117 0
-42 -117 599 0
118 -119 -143 152 0
118 -130 143 -152 0
118 -119 143 -152 0
118 -130 -143 152 0
-118 143 152 0
-118 -143 -152 0
-118 119 130 0
-7 119 -120 0
-7 119 128 0
7 -119 0
-119 120 -128 0
45 -50 120 -121 0
-45 -50 120 -582 0
50 -120 0
45 -120 121 0
-45 -120 582 0
-42 121 -581 0
42 121 -122 0
-42 -121 581 0
42 -121 122 0
39 122 123 127 0
39 122 123 -126 0
-39 -122 0
-122 -123 0
-122 126 -127 0
123 124 -280 580 0
11 123 124 -280 0
-123 280 0
-123 -124 0
-11 -123 -580 0
-9 124 125 0
9 -124 0
-124 -125 0
13 15 125 0
-13 125 579 0
13 125 285 0
-13 -125 -579 0
13 -15 -125 -285 0
13 -15 126 -285 0
-15 126 -285 455 0
15 -126 0
-126 285 0
-13 -126 -455 0
127 280 579 0
127 280 455 0
13 127 280 0
-127 -280 0
-13 -127 -455 -579 0
128 129 -476 0
121 122 128 0
122 128 129 0
121 128 -476 0
-122 -128 476 0
-121 -128 -129 0
47 129 -476 -483 0
44 129 -476 -483 0
-129 476 0
-129 483 0
-44 -47 -129 0
130 137 140 -810 0
130 131 137 140 0
-130 -140 0
-130 -137 0
-130 -131 810 0
60 131 132 136 0
60 131 132 -135 0
-60 -131 0
-131 -132 0
-131 135 -136 0
132 133 -614 856 0
65 132 133 -614 0
-132 614 0
-132 -133 0
-65 -132 -856 0
-64 133 134 0
64 -133 0
-133 -134 0
68 70 134 0
-68 134 855 0
68 134 619 0
-68 -134 -855 0
68 -70 -134 -619 0
68 -70 135 -619 0
-70 135 -619 789 0
70 -135 0
-135 619 0
-68 -135 -789 0
136 614 855 0
136 614 789 0
68 136 614 0
-136 -614 0
-68 -136 -789 -855 0
-56 137 -139 -858 0
56 137 -138 -139 0
-137 139 0
-56 -137 858 0
56 -137 138 0
-59 138 -857 0
59 -131 138 0
-59 -138 857 0
59 131 -138 0
139 -810 817 0
-139 810 0
-139 -817 0
-138 140 -141 0
138 -140 0
-140 141 0
94 141 -810 -817 0
141 142 -810 -817 0
-141 810 0
-141 817 0
-94 -141 -142 0
142 -818 819 0
-142 818 0
-142 -819 0
-7 143 -144 0
-7 143 151 0
7 -143 0
-143 144 -151 0
45 -50 144 -145 0
-45 -50 144 -586 0
50 -144 0
45 -144 145 0
-45 -144 586 0
-42 145 -585 0
42 145 -146 0
-42 -145 585 0
42 -145 146 0
39 146 147 150 0
39 146 147 -149 0
-39 -146 0
-146 -147 0
-146 149 -150 0
147 -148 280 -455 0
15 147 280 455 0
-147 -280 0
-147 148 -455 0
-15 -147 455 0
-13 148 583 0
13 15 148 0
-13 -148 -583 0
13 -15 -148 0
-9 148 149 0
9 -149 0
-148 -149 0
11 150 -280 0
150 -280 584 0
-150 280 0
-11 -150 -584 0
145 151 -476 0
129 146 151 0
145 146 151 0
129 151 -476 0
-129 -145 -151 0
-146 -151 476 0
152 158 160 -810 0
152 153 158 160 0
-152 -160 0
-152 -158 0
-152 -153 810 0
60 153 154 157 0
60 153 154 -156 0
-60 -153 0
-153 -154 0
-153 156 -157 0
154 -155 614 -789 0
70 154 614 789 0
-154 -614 0
-154 155 -789 0
-70 -154 789 0
-68 155 859 0
68 70 155 0
-68 -155 -859 0
68 -70 -155 0
-64 155 156 0
64 -156 0
-155 -156 0
65 157 -614 0
157 -614 860 0
-157 614 0
-65 -157 -860 0
56 -139 158 -159 0
-56 -139 158 -862 0
139 -158 0
56 -158 159 0
-56 -158 862 0
-59 159 -861 0
59 -153 159 0
-59 -159 861 0
59 153 -159 0
-141 -159 160 0
141 -160 0
159 -160 0
161 -162 -180 -221 0
161 -171 -180 -221 0
-161 221 0
-161 180 0
-161 162 171 0
-7 162 -163 0
-7 162 -170 0
-7 162 -169 0
7 -162 0
-162 163 169 170 0
163 166 -167 0
-9 163 164 -167 0
-163 167 0
-163 -164 -166 0
9 -163 -166 0
-13 164 602 0
13 164 165 0
-13 -164 -602 0
13 -164 -165 0
-15 165 -601 0
-165 601 0
15 -165 0
11 166 -280 0
166 -280 603 0
-166 280 0
-11 -166 -603 0
-38 167 168 0
38 -167 0
-167 -168 0
-164 168 280 -455 0
165 168 280 455 0
-168 -280 0
164 -168 -455 0
-165 -168 455 0
-45 -50 169 -605 0
-169 605 0
45 -169 0
50 -169 0
-42 -52 170 -604 0
-170 604 0
42 -170 0
52 -170 0
171 -172 -179 0
171 -179 810 0
-171 179 0
-171 172 -810 0
55 57 172 0
172 173 881 0
55 172 173 0
57 172 881 0
-55 -172 -881 0
-57 -172 -173 0
-59 173 -880 0
59 60 173 -174 0
59 -173 174 0
-59 -173 880 0
59 -60 -173 0
174 177 178 0
-64 174 175 177 0
-174 -177 0
64 -174 -178 0
-174 -175 -178 0
-68 175 878 0
68 175 176 0
-68 -175 -878 0
68 -175 -176 0
-70 176 -877 0
-176 877 0
70 -176 0
-175 177 614 -789 0
176 177 614 789 0
-177 -614 0
175 -177 -789 0
-176 -177 789 0
65 178 -614 0
178 -614 879 0
-178 614 0
-65 -178 -879 0
93 174 179 0
92 173 179 0
173 174 179 0
92 93 179 0
-92 -174 -179 0
-93 -173 -179 0
180 191 201 0
180 181 211 0
180 191 211 0
180 181 201 0
-180 -181 -191 0
-180 -201 -211 0
-7 181 -182 0
-7 181 190 0
7 -181 0
-181 182 -190 0
45 -50 182 -183 0
-45 -50 182 -613 0
50 -182 0
45 -182 183 0
-45 -182 613 0
-42 183 -612 0
42 183 -184 0
-42 -183 612 0
42 -183 184 0
39 184 185 189 0
39 184 185 -188 0
-39 -184 0
-184 -185 0
-184 188 -189 0
185 -187 280 -455 0
185 186 280 455 0
-185 -280 0
-185 187 -455 0
-185 -186 455 0
-15 186 -609 0
-186 609 0
15 -186 0
-13 187 610 0
13 186 187 0
-13 -187 -610 0
13 -186 -187 0
-9 187 188 0
9 -188 0
-187 -188 0
11 189 -280 0
189 -280 611 0
-189 280 0
-11 -189 -611 0
183 190 -476 0
129 184 190 0
183 184 190 0
129 190 -476 0
-129 -183 -190 0
-184 -190 476 0
191 198 200 -810 0
191 192 198 200 0
-191 -200 0
-191 -198 0
-191 -192 810 0
60 192 193 197 0
60 192 193 -196 0
-60 -192 0
-192 -193 0
-192 196 -197 0
193 -195 614 -789 0
193 194 614 789 0
-193 -614 0
-193 195 -789 0
-193 -194 789 0
-70 194 -885 0
-194 885 0
70 -194 0
-68 195 886 0
68 194 195 0
-68 -195 -886 0
68 -194 -195 0
-64 195 196 0
64 -196 0
-195 -196 0
65 197 -614 0
197 -614 887 0
-197 614 0
-65 -197 -887 0
56 -139 198 -199 0
-56 -139 198 -889 0
139 -198 0
56 -198 199 0
-56 -198 889 0
-59 199 -888 0
59 -192 199 0
-59 -199 888 0
59 192 -199 0
-141 -199 200 0
141 -200 0
199 -200 0
-7 201 -202 0
-7 201 210 0
7 -201 0
-201 202 -210 0
45 -50 202 -203 0
-45 -50 202 -591 0
50 -202 0
45 -202 203 0
-45 -202 591 0
-42 203 -590 0
42 203 -204 0
-42 -203 590 0
42 -203 204 0
39 204 205 209 0
39 204 205 -208 0
-39 -204 0
-204 -205 0
-204 208 -209 0
205 -207 280 -455 0
205 206 280 455 0
-205 -280 0
-205 207 -455 0
-205 -206 455 0
-15 206 -587 0
-206 587 0
15 -206 0
-13 207 588 0
13 206 207 0
-13 -207 -588 0
13 -206 -207 0
-9 207 208 0
9 -208 0
-207 -208 0
11 209 -280 0
209 -280 589 0
-209 280 0
-11 -209 -589 0
203 210 -476 0
129 204 210 0
203 204 210 0
129 210 -476 0
-129 -203 -210 0
-204 -210 476 0
211 218 220 -810 0
211 212 218 220 0
-211 -220 0
-211 -218 0
-211 -212 810 0
60 212 213 217 0
60 212 213 -216 0
-60 -212 0
-212 -213 0
-212 216 -217 0
213 -215 614 -789 0
213 214 614 789 0
-213 -614 0
-213 215 -789 0
-213 -214 789 0
-70 214 -863 0
-214 863 0
70 -214 0
-68 215 864 0
68 214 215 0
-68 -215 -864 0
68 -214 -215 0
-64 215 216 0
64 -216 0
-215 -216 0
65 217 -614 0
217 -614 865 0
-217 614 0
-65 -217 -865 0
56 -139 218 -219 0
-56 -139 218 -867 0
139 -218 0
56 -218 219 0
-56 -218 867 0
-59 219 -866 0
59 -212 219 0
-59 -219 866 0
59 212 -219 0
-141 -219 220 0
141 -220 0
219 -220 0
162 221 -222 -275 0
171 221 -222 -275 0
-221 275 0
-221 222 0
-162 -171 -221 0
222 223 224 235 -253 0
222 223 -224 -235 -253 0
-222 253 0
-222 -224 235 0
-222 -223 0
-222 224 -235 0
-119 -130 223 0
119 -223 0
130 -223 0
224 -225 226 0
-224 225 0
-224 -226 0
60 95 225 0
60 94 225 0
-60 -225 0
-94 -95 -225 0
226 227 -229 0
226 233 234 0
226 -229 233 0
-226 229 -234 0
-226 -227 -233 0
-226 229 -233 0
227 -228 789 790 793 0
-227 228 0
-227 -793 0
-227 -789 0
-227 -790 0
228 791 792 0
-228 -791 0
-228 -792 0
229 230 -733 0
-71 229 -232 733 0
-229 -230 -733 0
71 -229 733 0
-229 232 733 0
-71 230 -231 0
71 -230 0
-230 231 0
231 -846 -848 0
85 231 846 0
231 -846 -852 0
-85 -231 846 0
-231 -846 848 852 0
232 -846 848 854 0
-232 846 0
-232 -854 0
-232 -848 0
227 233 614 0
-230 233 614 0
-233 -614 0
-227 230 -233 0
66 234 -614 0
-234 614 0
-66 -234 0
235 -240 280 0
10 235 236 -240 0
-235 240 0
-235 -236 -280 0
-10 -235 -280 0
236 237 -399 0
236 -239 399 578 0
-236 -237 -399 0
-236 239 399 0
-236 399 -578 0
-20 237 -238 0
20 -237 0
-237 238 0
238 -570 -572 0
16 238 570 0
238 -570 -576 0
-16 -238 570 0
-238 -570 572 576 0
-20 239 -570 572 0
-239 570 0
-239 -572 0
20 -239 0
236 240 242 -246 0
240 -241 242 -246 0
-240 246 0
-240 -242 0
-236 -240 241 0
241 455 456 0
-241 -455 0
-241 -456 0
-236 242 243 0
237 242 -244 0
-236 237 242 0
242 243 -244 0
236 -242 244 0
-237 -242 -243 0
243 457 458 459 0
-243 -457 0
-243 -459 0
-243 -458 0
244 -245 280 0
-244 -280 0
-244 245 0
-243 245 455 456 0
243 -245 0
-245 -456 0
-245 -455 0
246 -247 -541 0
-246 541 0
-246 247 0
247 -249 251 0
247 248 -249 -512 0
-247 249 0
-247 -251 512 0
-247 -248 -251 0
-4 248 0
248 -521 527 0
248 521 528 0
4 -248 -521 -527 0
4 -248 521 -528 0
39 47 249 0
39 249 250 0
39 249 476 0
-39 -249 0
-47 -249 -250 -476 0
-44 250 -483 0
-250 483 0
44 -250 0
-3 -4 251 0
-3 251 -252 0
3 -251 0
4 -251 252 0
-4 252 0
252 521 -528 0
252 -521 -527 0
4 -252 -521 527 0
4 -252 521 528 0
253 -254 -260 -266 0
253 254 260 -266 0
-253 266 0
-253 -254 260 0
-253 254 -260 0
254 -258 280 0
10 254 -255 -258 0
-254 258 0
-254 255 -280 0
-10 -254 -280 0
255 399 -608 0
255 -256 -399 0
-255 256 -399 0
-255 399 608 0
-20 256 -570 0
16 -20 256 257 0
20 -256 0
-256 -257 570 0
-16 -256 570 0
257 291 607 0
-257 -291 0
-257 -607 0
-246 258 259 0
246 -258 0
-258 -259 0
245 255 259 0
255 256 259 0
-245 256 259 280 0
-245 -256 -259 0
245 -255 -259 0
-255 -259 -280 0
260 -264 614 0
66 260 -261 -264 0
-260 264 0
-260 261 -614 0
-66 -260 -614 0
261 733 -884 0
261 -262 -733 0
-261 262 -733 0
-261 733 884 0
-71 262 -846 0
-71 85 262 263 0
71 -262 0
-262 -263 846 0
-85 -262 846 0
263 625 883 0
-263 -625 0
-263 -883 0
-225 264 265 0
225 -264 0
-264 -265 0
227 261 265 0
261 262 265 0
-227 262 265 614 0
-227 -262 -265 0
227 -261 -265 0
-261 -265 -614 0
266 267 269 -272 -274 0
266 -267 -269 -272 -274 0
-266 274 0
-266 -267 269 0
-266 272 0
-266 267 -269 0
-239 -247 267 -268 0
239 -267 0
247 -267 0
-267 268 0
268 280 -541 0
10 268 -541 0
-268 541 0
-10 -268 -280 0
-71 -225 269 -270 271 0
-269 270 0
-269 -271 0
71 -269 0
225 -269 0
270 -846 848 0
-270 846 0
-270 -848 0
-66 271 -614 0
-271 614 0
66 -271 0
85 -225 271 272 -273 0
225 -272 0
-271 -272 0
-85 -272 0
-272 273 0
273 -617 -618 0
273 -616 619 0
273 -616 -618 0
273 -617 619 0
-273 618 -619 0
-273 616 617 0
-78 79 274 0
72 79 274 0
-79 -274 0
-72 78 -274 0
-191 -201 275 0
-181 -211 275 0
-181 -201 275 0
-191 -211 275 0
201 211 -275 0
181 191 -275 0
-28 276 -277 0
-32 276 -277 0
-34 276 -277 0
-276 277 0
28 32 34 -276 0
16 21 -249 277 -278 0
-16 -277 0
-277 278 0
249 -277 0
-21 -277 0
-268 278 279 -284 0
-268 278 279 285 0
268 -278 0
-278 -279 0
-278 284 -285 0
279 282 283 0
-279 -282 0
-279 -283 0
1 2 0
-1 -2 0
890 0

